\ENCODING=ISO-8859-1
\Problem name: IloCplex

Minimize
 obj1: 302162 X(1)(0)#1 + 909988 X(2)(0)#2 + 590466 X(3)(0)#3
       + 955112 X(4)(0)#4 + 302640 X(0)(1)#5 + 1204670 X(2)(1)#7
       + 905536 X(3)(1)#8 + 1201186 X(4)(1)#9 + 909744 X(0)(2)#10
       + 1232872 X(1)(2)#11 + 922604 X(3)(2)#13 + 1704678 X(4)(2)#14
       + 592362 X(0)(3)#15 + 906054 X(1)(3)#16 + 927804 X(2)(3)#17
       + 777144 X(4)(3)#19 + 959254 X(0)(4)#20 + 1204868 X(1)(4)#21
       + 1719208 X(2)(4)#22 + 781600 X(3)(4)#23
Subject To
 _Entradas_node0#0: X(0)(0)#0 + X(1)(0)#1 + X(2)(0)#2 + X(3)(0)#3 + X(4)(0)#4
                     = 1
 _Entradas_node1#1: X(0)(1)#5 + X(1)(1)#6 + X(2)(1)#7 + X(3)(1)#8 + X(4)(1)#9
                     = 1
 _Entradas_node2#2: X(0)(2)#10 + X(1)(2)#11 + X(2)(2)#12 + X(3)(2)#13
                    + X(4)(2)#14  = 1
 _Entradas_node3#3: X(0)(3)#15 + X(1)(3)#16 + X(2)(3)#17 + X(3)(3)#18
                    + X(4)(3)#19  = 1
 _Entradas_node4#4: X(0)(4)#20 + X(1)(4)#21 + X(2)(4)#22 + X(3)(4)#23
                    + X(4)(4)#24  = 1
 Saidas_node0#5:    X(0)(0)#0 + X(0)(1)#5 + X(0)(2)#10 + X(0)(3)#15
                    + X(0)(4)#20  = 1
 Saidas_node1#6:    X(1)(0)#1 + X(1)(1)#6 + X(1)(2)#11 + X(1)(3)#16
                    + X(1)(4)#21  = 1
 Saidas_node2#7:    X(2)(0)#2 + X(2)(1)#7 + X(2)(2)#12 + X(2)(3)#17
                    + X(2)(4)#22  = 1
 Saidas_node3#8:    X(3)(0)#3 + X(3)(1)#8 + X(3)(2)#13 + X(3)(3)#18
                    + X(3)(4)#23  = 1
 Saidas_node4#9:    X(4)(0)#4 + X(4)(1)#9 + X(4)(2)#14 + X(4)(3)#19
                    + X(4)(4)#24  = 1
 c11#10:            X(0)(0)#0 + X(1)(1)#6 + X(2)(2)#12 + X(3)(3)#18
                    + X(4)(4)#24 <= 0
 c12#11:            5 X(1)(1)#6 <= 4
 c13#12:            5 X(1)(2)#11 + x26#25 - x27#26 <= 4
 c14#13:            5 X(1)(3)#16 + x26#25 - x28#27 <= 4
 c15#14:            5 X(1)(4)#21 + x26#25 - x29#28 <= 4
 c16#15:            5 X(2)(1)#7 - x26#25 + x27#26 <= 4
 c17#16:            5 X(2)(2)#12 <= 4
 c18#17:            5 X(2)(3)#17 + x27#26 - x28#27 <= 4
 c19#18:            5 X(2)(4)#22 + x27#26 - x29#28 <= 4
 c20#19:            5 X(3)(1)#8 - x26#25 + x28#27 <= 4
 c21#20:            5 X(3)(2)#13 - x27#26 + x28#27 <= 4
 c22#21:            5 X(3)(3)#18 <= 4
 c23#22:            5 X(3)(4)#23 + x28#27 - x29#28 <= 4
 c24#23:            5 X(4)(1)#9 - x26#25 + x29#28 <= 4
 c25#24:            5 X(4)(2)#14 - x27#26 + x29#28 <= 4
 c26#25:            5 X(4)(3)#19 - x28#27 + x29#28 <= 4
 c27#26:            5 X(4)(4)#24 <= 4
Bounds
 0 <= X(0)(0)#0 <= 1
 0 <= X(1)(0)#1 <= 1
 0 <= X(2)(0)#2 <= 1
 0 <= X(3)(0)#3 <= 1
 0 <= X(4)(0)#4 <= 1
 0 <= X(0)(1)#5 <= 1
 0 <= X(1)(1)#6 <= 1
 0 <= X(2)(1)#7 <= 1
 0 <= X(3)(1)#8 <= 1
 0 <= X(4)(1)#9 <= 1
 0 <= X(0)(2)#10 <= 1
 0 <= X(1)(2)#11 <= 1
 0 <= X(2)(2)#12 <= 1
 0 <= X(3)(2)#13 <= 1
 0 <= X(4)(2)#14 <= 1
 0 <= X(0)(3)#15 <= 1
 0 <= X(1)(3)#16 <= 1
 0 <= X(2)(3)#17 <= 1
 0 <= X(3)(3)#18 <= 1
 0 <= X(4)(3)#19 <= 1
 0 <= X(0)(4)#20 <= 1
 0 <= X(1)(4)#21 <= 1
 0 <= X(2)(4)#22 <= 1
 0 <= X(3)(4)#23 <= 1
 0 <= X(4)(4)#24 <= 1
 2 <= x26#25 <= 5
 2 <= x27#26 <= 5
 2 <= x28#27 <= 5
 2 <= x29#28 <= 5
Binaries
 X(0)(0)#0  X(1)(0)#1  X(2)(0)#2  X(3)(0)#3  X(4)(0)#4  X(0)(1)#5  X(1)(1)#6 
 X(2)(1)#7  X(3)(1)#8  X(4)(1)#9  X(0)(2)#10  X(1)(2)#11  X(2)(2)#12 
 X(3)(2)#13  X(4)(2)#14  X(0)(3)#15  X(1)(3)#16  X(2)(3)#17  X(3)(3)#18 
 X(4)(3)#19  X(0)(4)#20  X(1)(4)#21  X(2)(4)#22  X(3)(4)#23  X(4)(4)#24 
Generals
 x26#25  x27#26  x28#27  x29#28 
End
